
Gurobi 9.0.2 (win64) logging started Sat Oct 10 18:10:19 2020

Changed value of parameter logfile to result\v6.2-20201010T1221\scenario_2030_eff075_cab5000.log
   Prev:   Default: 
Gurobi Optimizer version 9.0.2 build v9.0.2rc0 (win64)
Optimize a model with 1384150 rows, 884815 columns and 3912197 nonzeros
Model fingerprint: 0xc0d33f00
Coefficient statistics:
  Matrix range     [1e-07, 5e+05]
  Objective range  [1e+00, 1e+00]
  Bounds range     [0e+00, 0e+00]
  RHS range        [2e-05, 3e+08]
Warning: Model contains large matrix coefficient range
         Consider reformulating model or setting NumericFocus parameter
         to avoid numerical issues.

Concurrent LP optimizer: primal simplex, dual simplex, and barrier
Showing barrier log only...

Presolve removed 1129315 rows and 656241 columns
Presolve time: 3.34s
Presolved: 254835 rows, 342440 columns, 891938 nonzeros

Ordering time: 0.12s

Barrier statistics:
 Dense cols : 9
 AA' NZ     : 8.194e+05
 Factor NZ  : 4.461e+06 (roughly 300 MBytes of memory)
 Factor Ops : 1.125e+08 (less than 1 second per iteration)
 Threads    : 30

                  Objective                Residual
Iter       Primal          Dual         Primal    Dual     Compl     Time
   0  -2.11403913e+16 -1.58516058e+15  6.34e+06 1.56e+04  2.54e+12     4s
   1  -3.21250988e+15 -1.58990752e+15  9.56e+05 4.74e+06  8.37e+11     4s
   2  -1.36161109e+15 -1.27782314e+15  4.03e+05 7.46e+05  2.19e+11     5s
   3  -4.75145561e+14 -1.05034022e+15  1.38e+05 1.95e+05  6.98e+10     5s
   4  -1.10784264e+14 -6.38914187e+14  3.08e+04 4.43e+04  1.62e+10     5s
   5  -3.58387712e+13 -3.93093381e+14  1.01e+04 1.74e+04  5.94e+09     6s
   6  -1.57033967e+13 -2.85040388e+14  4.74e+03 8.76e+03  2.96e+09     6s
   7  -6.68236429e+12 -1.52360896e+14  2.21e+03 1.51e+03  9.54e+08     6s
   8  -7.57237161e+11 -7.11040682e+13  4.79e+02 2.00e+02  2.09e+08     6s
   9   6.96028607e+11 -8.70721734e+12  1.96e+00 1.93e+00  1.40e+07     7s
  10   1.84987869e+11 -1.20108358e+12  2.07e-01 1.46e-01  2.02e+06     7s
  11   7.41356185e+10 -3.58068673e+11  6.43e-02 7.66e-09  6.27e+05     7s
  12   3.21730993e+10 -1.57426437e+11  2.36e-02 7.45e-09  2.75e+05     8s
  13   2.09717911e+10 -8.10712262e+10  1.34e-02 1.12e-08  1.48e+05     8s
  14   2.16261729e+10 -7.20573091e+10  1.28e-02 1.12e-08  1.36e+05     8s
  15   1.70508235e+10 -3.52775831e+10  8.79e-03 1.12e-08  7.59e+04     8s
  16   1.18920831e+10 -8.54607747e+09  2.49e-03 1.12e-08  2.96e+04     9s
  17   9.86710356e+09  4.54809776e+08  1.24e-03 7.45e-09  1.36e+04     9s
  18   9.71115584e+09  2.14448169e+09  1.15e-03 7.45e-09  1.10e+04     9s
  19   9.25575445e+09  4.64931665e+09  8.59e-04 5.59e-09  6.67e+03    10s
  20   8.95562019e+09  5.67675234e+09  6.78e-04 3.73e-09  4.74e+03    10s
  21   8.84315959e+09  5.91673186e+09  6.14e-04 5.59e-09  4.23e+03    10s
  22   8.62960341e+09  6.06440187e+09  4.89e-04 4.66e-09  3.71e+03    11s
  23   8.47548495e+09  6.20808972e+09  3.98e-04 4.66e-09  3.28e+03    11s
  24   8.26618021e+09  6.67838024e+09  2.77e-04 3.73e-09  2.30e+03    12s
  25   8.11051120e+09  6.88901335e+09  1.87e-04 2.79e-09  1.77e+03    12s
  26   7.97934765e+09  7.01754156e+09  1.11e-04 2.79e-09  1.39e+03    12s
  27   7.90324469e+09  7.40080877e+09  6.99e-05 2.79e-09  7.26e+02    13s
  28   7.83893604e+09  7.54352375e+09  3.81e-05 2.79e-09  4.27e+02    13s
  29   7.81981856e+09  7.59985283e+09  2.90e-05 1.86e-09  3.18e+02    13s
  30   7.79246726e+09  7.62444748e+09  1.67e-05 1.86e-09  2.43e+02    14s
  31   7.78050872e+09  7.65335603e+09  1.13e-05 1.86e-09  1.84e+02    14s
  32   7.76952504e+09  7.67826298e+09  6.54e-06 1.86e-09  1.32e+02    14s
  33   7.76441704e+09  7.70090656e+09  4.37e-06 1.86e-09  9.17e+01    14s
  34   7.76045209e+09  7.71682853e+09  2.82e-06 1.86e-09  6.30e+01    15s
  35   7.75673689e+09  7.72987404e+09  1.53e-06 1.86e-09  3.88e+01    15s
  36   7.75410744e+09  7.73854955e+09  5.86e-07 1.86e-09  2.25e+01    15s
  37   7.75357635e+09  7.74069985e+09  4.02e-07 1.86e-09  1.86e+01    16s
  38   7.75300077e+09  7.74747016e+09  2.23e-07 1.86e-09  7.99e+00    16s
  39   7.75284023e+09  7.74760447e+09  1.77e-07 1.86e-09  7.56e+00    16s
  40   7.75263244e+09  7.74935738e+09  1.11e-07 1.86e-09  4.73e+00    16s
  41   7.75258009e+09  7.74957445e+09  9.64e-08 1.86e-09  4.34e+00    17s
  42   7.75238807e+09  7.75035831e+09  1.53e-07 1.86e-09  2.93e+00    17s
  43   7.75227066e+09  7.75184350e+09  1.57e-07 2.79e-09  6.17e-01    17s
  44   7.75223456e+09  7.75217451e+09  2.08e-07 2.79e-09  8.67e-02    17s
  45   7.75223209e+09  7.75220871e+09  3.67e-10 2.79e-09  3.37e-02    18s
  46   7.75223189e+09  7.75223158e+09  1.18e-09 5.31e-09  4.51e-04    18s
  47   7.75223189e+09  7.75223173e+09  8.21e-06 3.37e-07  2.32e-04    18s

Barrier solved model in 47 iterations and 18.40 seconds
Optimal objective 7.75223189e+09

Crossover log...

   76904 DPushes remaining with DInf 0.0000000e+00                19s
    7647 DPushes remaining with DInf 0.0000000e+00                20s
       0 DPushes remaining with DInf 0.0000000e+00                23s
Warning: Markowitz tolerance tightened to 0.5

   93508 PPushes remaining with PInf 1.0730553e-01                23s
   44046 PPushes remaining with PInf 2.0527353e-01                31s
   27627 PPushes remaining with PInf 8.4837188e-02                40s
    6626 PPushes remaining with PInf 1.6461157e-01                48s
       0 PPushes remaining with PInf 0.0000000e+00                52s

  Push phase complete: Pinf 0.0000000e+00, Dinf 1.6855759e-01     52s

Iteration    Objective       Primal Inf.    Dual Inf.      Time
  121434    7.7522319e+09   0.000000e+00   1.685576e-01     52s
  121435    7.7522319e+09   0.000000e+00   0.000000e+00     54s

Solved with barrier
Solved in 121435 iterations and 54.48 seconds
Optimal objective  7.752231887e+09
Warning: unscaled primal violation = 0.000870599 and residual = 0.000870599
